unsat
(:binary-propagations  55
 :conflicts            1
 :final-checks         1
 :max-generation       1
 :max-memory           24.52
 :memory               21.31
 :mk-bool-var          1121
 :mk-clause            297
 :mk-clause-binary     594
 :num-allocs           21510726
 :num-checks           1
 :propagations         55
 :quant-instantiations 242
 :restarts             1
 :rlimit-count         197233
 :time                 0.06)
